3 4 3

42 12 21 21 24 14 50 43 48 42 34 33 
41 48 39 7 7 17 28 11 22 11 48 34 
13 20 45 20 27 32 22 13 24 6 45 14 

16 71 65 141 108 169 101 128 160 119 146 173 
169 82 114 199 57 14 100 30 168 164 136 163 
78 197 164 18 103 175 72 77 179 162 145 193 
